154 5
10 10 10 10 10 

0 0 0 0 0 0 2 2 14 
0 0 0 0 0 0 3 3 4 5 
4 0 1 0 0 0 6 12 11 10 9 8 6 
10 0 6 0 0 0 4 12 11 8 7 
6 0 4 0 0 0 4 10 9 8 7 
1 0 6 0 0 0 1 7 
5 0 8 0 0 0 2 13 128 
4 0 5 0 0 0 1 13 
5 0 8 0 0 0 1 13 
6 0 4 0 0 0 1 13 
4 0 4 0 0 0 1 13 
6 0 4 0 0 0 1 13 
0 0 0 0 0 0 1 26 
0 0 0 0 0 0 6 15 16 18 22 23 24 
4 0 1 0 0 0 3 20 17 69 
1 0 8 0 0 0 2 20 19 
2 0 4 0 0 0 1 21 
10 0 5 0 0 0 1 19 
6 0 5 0 0 0 1 25 
4 0 6 0 0 0 1 25 
8 0 9 0 0 0 1 25 
8 0 6 0 0 0 1 25 
10 0 3 0 0 0 1 25 
5 0 3 0 0 0 1 25 
0 0 0 0 0 0 1 26 
0 0 0 0 0 0 2 27 39 
0 0 0 0 0 0 7 28 30 31 34 35 36 37 
9 0 0 1 0 0 1 29 
3 0 0 4 0 0 2 33 32 
1 0 0 7 0 0 1 32 
3 0 0 7 0 0 1 32 
1 0 0 6 0 0 1 38 
9 0 0 7 0 0 1 38 
2 0 0 4 0 0 1 38 
9 0 0 2 0 0 1 38 
4 0 0 6 0 0 1 38 
4 0 0 6 0 0 1 38 
0 0 0 0 0 0 1 51 
0 0 0 0 0 0 3 40 41 44 
4 0 1 0 0 0 4 49 47 43 42 
8 0 5 0 0 0 3 47 46 45 
4 0 5 0 0 0 1 46 
7 0 6 0 0 0 1 45 
6 0 6 0 0 0 1 48 
9 0 5 0 0 0 1 50 
10 0 4 0 0 0 1 50 
1 0 6 0 0 0 1 50 
10 0 6 0 0 0 1 50 
3 0 6 0 0 0 1 50 
0 0 0 0 0 0 1 51 
0 0 0 0 0 0 2 52 84 
0 0 0 0 0 0 7 53 54 55 56 62 81 82 
4 0 1 1 1 0 4 77 60 58 57 
1 0 7 7 9 0 6 78 77 76 75 74 59 
1 0 3 3 4 0 6 80 78 73 69 68 60 
9 0 3 2 5 0 4 79 78 65 59 
10 0 4 6 5 0 3 75 69 59 
5 0 6 4 3 0 3 72 63 61 
3 0 3 3 3 0 2 72 61 
6 0 7 3 6 0 4 75 74 72 64 
2 0 4 4 7 0 3 73 68 64 
5 0 9 4 6 0 3 77 67 63 
2 0 5 9 5 0 2 76 68 
8 0 8 9 2 0 1 66 
7 0 6 8 8 0 1 66 
4 0 8 4 2 0 1 67 
3 0 6 5 10 0 1 70 
6 0 3 4 6 0 1 71 
7 0 4 4 6 0 1 74 
10 0 5 6 6 0 1 83 
8 0 8 7 2 0 1 83 
2 0 5 6 5 0 1 83 
10 0 7 3 7 0 1 83 
2 0 4 4 6 0 1 83 
2 0 3 7 8 0 1 83 
8 0 7 8 3 0 1 83 
2 0 4 6 2 0 1 83 
9 0 7 8 1 0 1 83 
4 0 5 1 6 0 1 83 
4 0 2 3 2 0 1 83 
4 0 3 5 7 0 1 83 
9 0 3 6 7 0 1 83 
0 0 0 0 0 0 1 154 
0 0 0 0 0 0 7 85 87 88 91 92 93 94 
5 0 0 1 0 0 1 86 
8 0 0 5 0 0 1 90 
9 0 0 6 0 0 1 89 
6 0 0 4 0 0 1 89 
2 0 0 8 0 0 1 95 
10 0 0 7 0 0 1 95 
10 0 0 4 0 0 1 95 
8 0 0 6 0 0 1 95 
6 0 0 4 0 0 1 95 
4 0 0 5 0 0 1 95 
0 0 0 0 0 0 2 96 118 
0 0 0 0 0 0 6 97 98 99 100 103 104 
6 1 0 0 1 0 4 116 106 105 102 
10 10 0 0 10 0 3 116 109 101 
6 3 0 0 7 0 4 115 108 106 105 
3 5 0 0 6 0 3 109 107 105 
10 4 0 0 7 0 4 115 111 106 105 
3 8 0 0 3 0 5 115 114 113 111 109 
3 3 0 0 2 0 5 115 114 113 111 109 
7 8 0 0 3 0 3 116 109 105 
4 3 0 0 5 0 3 114 113 112 
5 5 0 0 8 0 2 114 110 
10 5 0 0 5 0 2 116 111 
3 5 0 0 4 0 2 113 111 
3 3 0 0 3 0 1 110 
10 5 0 0 6 0 1 112 
10 5 0 0 2 0 1 112 
4 5 0 0 7 0 1 117 
5 6 0 0 4 0 1 117 
1 4 0 0 7 0 1 117 
5 8 0 0 5 0 1 117 
8 4 0 0 5 0 1 117 
0 0 0 0 0 0 1 154 
0 0 0 0 0 0 4 119 120 121 124 
5 1 0 0 0 0 4 128 127 123 122 
9 5 0 0 0 0 3 127 123 122 
1 5 0 0 0 0 2 126 123 
8 6 0 0 0 0 2 126 125 
10 8 0 0 0 0 1 125 
1 5 0 0 0 0 1 125 
10 3 0 0 0 0 1 129 
6 5 0 0 0 0 1 129 
6 7 0 0 0 0 1 129 
5 5 0 0 0 0 1 129 
0 0 0 0 0 0 2 130 142 
0 0 0 0 0 0 5 131 132 133 134 135 
4 0 0 0 0 1 3 140 137 136 
8 0 0 0 0 5 3 140 137 136 
10 0 0 0 0 10 3 140 137 136 
1 0 0 0 0 5 3 140 137 136 
5 0 0 0 0 5 2 140 136 
5 0 0 0 0 5 2 139 138 
7 0 0 0 0 4 1 138 
10 0 0 0 0 4 1 141 
2 0 0 0 0 7 1 141 
4 0 0 0 0 4 1 141 
0 0 0 0 0 0 1 154 
0 0 0 0 0 0 3 143 144 146 
5 1 0 0 0 0 4 152 149 147 145 
5 8 0 0 0 0 3 150 149 148 
4 5 0 0 0 0 2 150 148 
10 3 0 0 0 0 2 151 149 
7 6 0 0 0 0 1 148 
7 7 0 0 0 0 1 153 
1 2 0 0 0 0 1 153 
7 7 0 0 0 0 1 153 
5 7 0 0 0 0 1 153 
2 4 0 0 0 0 1 153 
0 0 0 0 0 0 1 154 
0 0 0 0 0 0 0 
